NAME : census.pruned_global_8.tour
TYPE : TOUR
DIMENSION : 68
TOUR_SECTION
1
2
3
8
9
14
17
25
35
42
60
62
4
16
18
21
22
26
28
30
36
38
44
45
46
48
51
53
55
5
12
27
33
39
43
50
54
66
67
68
6
7
15
31
32
34
37
47
49
52
63
64
65
10
11
13
19
20
23
24
29
40
41
56
57
58
59
61
-1
EOF
